Version identifier: 22.1.0.0 | 2022-03-09 | 1a383f8ce
CPXPARAM_Threads                                 1
CPXPARAM_MIP_Strategy_VariableSelect             3
CPXPARAM_TimeLimit                               599.99328772599995
Tried aggregator 1 time.
MIP Presolve eliminated 13 rows and 0 columns.
MIP Presolve modified 1 coefficients.
Reduced MIP has 1812 rows, 7500 columns, and 81538 nonzeros.
Reduced MIP has 7500 binaries, 0 generals, 0 SOSs, and 0 indicators.
Presolve time = 0.05 sec. (38.88 ticks)
Probing time = 0.01 sec. (6.03 ticks)
Tried aggregator 1 time.
Detecting symmetries...
Reduced MIP has 1812 rows, 7500 columns, and 81538 nonzeros.
Reduced MIP has 7500 binaries, 0 generals, 0 SOSs, and 0 indicators.
Presolve time = 0.06 sec. (47.99 ticks)
Probing time = 0.01 sec. (6.03 ticks)
Clique table members: 1194.
MIP emphasis: balance optimality and feasibility.
MIP search method: dynamic search.
Parallel mode: none, using 1 thread.
Root relaxation solution time = 1.59 sec. (1711.81 ticks)

        Nodes                                         Cuts/
   Node  Left     Objective  IInf  Best Integer    Best Bound    ItCnt     Gap

      0     0        0.0000  1378                      0.0000     5175         
      0     0        0.0000   360                  Cliques: 1     5443         
      0     0        0.0000   952                   Cuts: 136    10569         
      0     0        0.0000   589                     Cuts: 2    17011         
      0     0        0.0000   761                    Cuts: 29    22391         
      0     2        0.0000   306                      0.0000    22391         
Elapsed time = 77.48 sec. (84066.56 ticks, tree = 0.01 MB, solutions = 0)
      1     3        0.0000   480                      0.0000    33588         
      2     4        0.0000   380                      0.0000    38364         
      3     5        0.0000   879                      0.0000    45180         
      4     6        0.0000   387                      0.0000    45333         
      5     7        0.0000   529                      0.0000    51902         
      6     8        0.0000   405                      0.0000    52530         
      7     9        0.0000  1089                      0.0000    59856         
      8    10        0.0000  1349                      0.0000    61464         
      9    11        0.0000  1089                      0.0000    61538         
     10    12        0.0000   966                      0.0000    61959         
Elapsed time = 92.85 sec. (100857.97 ticks, tree = 0.12 MB, solutions = 0)
     12    14        0.0000   907                      0.0000    64922         
     13    15        0.0000  1322                      0.0000    67232         
     15    17        0.0000  1082                      0.0000    68344         
     17    19        0.0000   892                      0.0000    69643         
     18    20        0.0000  1037                      0.0000    71804         
     20    22        0.0000  1053                      0.0000    74987         
     22    24        0.0000   888                      0.0000    77143         
     23    25        0.0000  1255                      0.0000    79603         
     25    27        0.0000  1070                      0.0000    84133         
     27    29        0.0000   906                      0.0000    87128         
Elapsed time = 104.67 sec. (114284.40 ticks, tree = 0.39 MB, solutions = 0)
     29    31        0.0000  1111                      0.0000    94015         
     31    33        0.0000   956                      0.0000   100386         
     33    35        0.0000   963                      0.0000   103286         
     35    37        0.0000  1084                      0.0000   105437         
     37    39        0.0000  1203                      0.0000   108097         
     39    39    infeasible                            0.0000   119572         
     40    40        0.0000  1084                      0.0000   119579         
     41    39    infeasible                            0.0000   166905         
     42    40        0.0000  1084                      0.0000   166906         
     44    42        0.0000  1094                      0.0000   168369         
Elapsed time = 145.33 sec. (157990.65 ticks, tree = 0.61 MB, solutions = 0)
     45    43        0.0000   932                      0.0000   169733         
     46    44        0.0000  1022                      0.0000   176927         
     48    46        0.0000   887                      0.0000   194244         
     49    47        0.0000   892                      0.0000   194757         
     51    49        0.0000   800                      0.0000   196374         
     54    52        0.0000   780                      0.0000   202817         
     55    51    infeasible                            0.0000   218265         
     57    51    infeasible                            0.0000   220458         
     59    51    infeasible                            0.0000   222946         
     60    52        0.0000   774                      0.0000   223194         
Elapsed time = 174.87 sec. (189443.83 ticks, tree = 0.66 MB, solutions = 0)
     61    51    infeasible                            0.0000   236885         
     62    52        0.0000   730                      0.0000   246452         
     64    52        0.0000   713                      0.0000   250618         
     66    52    infeasible                            0.0000   277331         
     68    54        0.0000   569                      0.0000   278149         
     69    53    infeasible                            0.0000   281049         
     71    55        0.0000   527                      0.0000   288773         
     73    57        0.0000   542                      0.0000   289221         
     75    59        0.0000   530                      0.0000   289352         
     77    61        0.0000   520                      0.0000   289845         
Elapsed time = 191.69 sec. (207024.13 ticks, tree = 0.79 MB, solutions = 0)
     79    61    infeasible                            0.0000   291972         
     82    64        0.0000   470                      0.0000   293310         
     85    65    infeasible                            0.0000   294671         
     88    68        0.0000   516                      0.0000   295892         
     91    71        0.0000   457                      0.0000   297117         
     94    72        0.0000   490                      0.0000   298952         
     97    75        0.0000   462                      0.0000   299969         
    100    78        0.0000   428                      0.0000   301662         
    104    80        0.0000   433                      0.0000   303105         
    108    82        0.0000   408                      0.0000   304235         
Elapsed time = 204.39 sec. (220714.14 ticks, tree = 1.17 MB, solutions = 0)
    112    84        0.0000   406                      0.0000   305480         
    115    83    infeasible                            0.0000   308562         
    119    85        0.0000   363                      0.0000   310144         
    123    85        0.0000   361                      0.0000   312783         
    128    84    infeasible                            0.0000   315813         
    135    85        0.0000   328                      0.0000   317438         
    140    86    infeasible                            0.0000   319105         
    143    87        0.0000   333                      0.0000   320837         
    147    87        0.0000   341                      0.0000   322963         
    151    89    infeasible                            0.0000   325511         
Elapsed time = 214.92 sec. (232341.39 ticks, tree = 1.31 MB, solutions = 0)
    154    90        0.0000   327                      0.0000   327851         
    158    92        0.0000   326                      0.0000   330233         
    163    95        0.0000   317                      0.0000   331840         
    167    95    infeasible                            0.0000   333867         
    172    96        0.0000   313                      0.0000   335565         
    177    95    infeasible                            0.0000   338495         
    181    95    infeasible                            0.0000   341412         
    185    95    infeasible                            0.0000   344419         
    190    96        0.0000   305                      0.0000   346664         
    193    95    infeasible                            0.0000   349685         
Elapsed time = 225.96 sec. (244473.24 ticks, tree = 1.41 MB, solutions = 0)
    197    97        0.0000   326                      0.0000   351349         
    200    98        0.0000   321                      0.0000   352297         
    206    98        0.0000   326                      0.0000   353710         
    209    97    infeasible                            0.0000   356752         
    214    98        0.0000   327                      0.0000   358062         
    218    98        0.0000   332                      0.0000   360042         
    222   102        0.0000   333                      0.0000   360970         
    227   103        0.0000   325                      0.0000   362728         
    232   102    infeasible                            0.0000   365015         
    236   102    infeasible                            0.0000   367936         
Elapsed time = 235.57 sec. (254844.52 ticks, tree = 1.54 MB, solutions = 0)
    241   103        0.0000   308                      0.0000   369442         
    246   102    infeasible                            0.0000   372477         
    251   103        0.0000   299                      0.0000   374229         
    255   105        0.0000   298                      0.0000   375854         
    258   108        0.0000   306                      0.0000   377522         
    263   109        0.0000   305                      0.0000   379020         
    268   110        0.0000   289                      0.0000   380611         
    273   109    infeasible                            0.0000   382736         
    276   110    infeasible                            0.0000   384883         
    292   120        0.0000   282                      0.0000   389344         
Elapsed time = 248.13 sec. (268276.40 ticks, tree = 1.83 MB, solutions = 0)
    303   122    infeasible                            0.0000   399296         
    316   117    infeasible                            0.0000   403424         
    325   120        0.0000   277                      0.0000   410068         
    336   121        0.0000   286                      0.0000   419194         
    341   118        0.0000   275                      0.0000   422148         
    359   115    infeasible                            0.0000   431009         
    376   117        0.0000   265                      0.0000   438290         
    390   116    infeasible                            0.0000   442660         
    408   117        0.0000   316                      0.0000   449715         
    426   117        0.0000   286                      0.0000   457268         
Elapsed time = 286.06 sec. (309021.93 ticks, tree = 1.78 MB, solutions = 0)
    439   118        0.0000   273                      0.0000   465890         
    458   116    infeasible                            0.0000   472965         
    473   119        0.0000   277                      0.0000   480121         
    487   116    infeasible                            0.0000   487335         
    501   118        0.0000   311                      0.0000   495005         
    523   118        0.0000   293                      0.0000   501926         
    539   120        0.0000   296                      0.0000   509597         
    557   121        0.0000   278                      0.0000   518117         
    569   119    infeasible                            0.0000   524944         
    582   122    infeasible                            0.0000   533002         
Elapsed time = 322.32 sec. (348587.87 ticks, tree = 1.88 MB, solutions = 0)
    593   121    infeasible                            0.0000   540634         
    601   122        0.0000   285                      0.0000   547731         
    611   124    infeasible                            0.0000   557405         
    628   123    infeasible                            0.0000   565876         
    639   126        0.0000   275                      0.0000   575130         
    649   124        0.0000   276                      0.0000   581798         
    663   121        0.0000   294                      0.0000   591478         
    678   122    infeasible                            0.0000   600023         
    694   122        0.0000   285                      0.0000   609382         
    708   122    infeasible                            0.0000   615819         
Elapsed time = 360.03 sec. (389513.27 ticks, tree = 1.88 MB, solutions = 0)
    731   122        0.0000   288                      0.0000   622357         
    755   122        0.0000   288                      0.0000   628431         
    771   120        0.0000   303                      0.0000   638281         
    785   120    infeasible                            0.0000   647909         
    801   119        0.0000   286                      0.0000   657515         
    819   117    infeasible                            0.0000   667098         
    835   119        0.0000   239                      0.0000   673966         
    854   116    infeasible                            0.0000   683034         
    869   119        0.0000   310                      0.0000   690251         
    882   124        0.0000   309                      0.0000   697745         
Elapsed time = 396.62 sec. (429335.38 ticks, tree = 1.88 MB, solutions = 0)
    896   130        0.0000   298                      0.0000   705222         
    910   133        0.0000   269                      0.0000   713717         
    919   134        0.0000   269                      0.0000   723429         
    938   131        0.0000   304                      0.0000   729723         
    950   133        0.0000   288                      0.0000   738676         
    959   131        0.0000   297                      0.0000   745930         
    968   131    infeasible                            0.0000   751419         
    980   131        0.0000   290                      0.0000   756033         
    994   129    infeasible                            0.0000   761681         
   1006   129        0.0000   301                      0.0000   769250         
Elapsed time = 433.64 sec. (469563.42 ticks, tree = 1.97 MB, solutions = 0)
   1019   134    infeasible                            0.0000   776957         
   1034   131    infeasible                            0.0000   782135         
   1047   132    infeasible                            0.0000   791714         
   1060   130        0.0000   299                      0.0000   799053         
   1075   129    infeasible                            0.0000   804333         
   1092   127        0.0000   300                      0.0000   811453         
   1105   130    infeasible                            0.0000   821738         
   1119   132        0.0000   262                      0.0000   831130         
   1135   132        0.0000   268                      0.0000   840686         
   1150   129    infeasible                            0.0000   847357         
Elapsed time = 471.72 sec. (510727.02 ticks, tree = 2.01 MB, solutions = 0)
   1163   132        0.0000   293                      0.0000   855781         
   1175   132    infeasible                            0.0000   866995         
   1187   130        0.0000   285                      0.0000   875230         
   1206   128        0.0000   287                      0.0000   884359         
   1218   127        0.0000   315                      0.0000   893693         
   1235   132        0.0000   301                      0.0000   899905         
   1255   132    infeasible                            0.0000   907237         
   1267   132        0.0000   274                      0.0000   912912         
   1289   130    infeasible                            0.0000   921006         
   1303   132        0.0000   289                      0.0000   929972         
Elapsed time = 509.64 sec. (551890.86 ticks, tree = 2.04 MB, solutions = 0)
   1319   128    infeasible                            0.0000   940956         
   1336   129        0.0000   295                      0.0000   947469         
   1354   127    infeasible                            0.0000   956181         
   1373   129        0.0000   269                      0.0000   966480         
   1383   129    infeasible                            0.0000   977664         
   1400   130        0.0000   294                      0.0000   984685         
   1422   129        0.0000   301                      0.0000   990686         
   1436   129    infeasible                            0.0000   999705         
   1453   133        0.0000   301                      0.0000  1005977         
   1467   133        0.0000   275                      0.0000  1012164         
Elapsed time = 547.32 sec. (592735.25 ticks, tree = 2.06 MB, solutions = 0)
   1482   130    infeasible                            0.0000  1021560         
   1499   133    infeasible                            0.0000  1029632         
   1516   132        0.0000   285                      0.0000  1036181         
   1531   134    infeasible                            0.0000  1041527         
   1555   132        0.0000   315                      0.0000  1048363         
   1580   133        0.0000   287                      0.0000  1054358         
   1596   135        0.0000   262                      0.0000  1062198         
   1607   132    infeasible                            0.0000  1069079         
   1617   136        0.0000   284                      0.0000  1078131         
   1624   137        0.0000   240                      0.0000  1088298         
Elapsed time = 584.96 sec. (633338.41 ticks, tree = 2.13 MB, solutions = 0)
   1643   133    infeasible                            0.0000  1096705         
   1651   133        0.0000   273                      0.0000  1103920         
   1670   131        0.0000   306                      0.0000  1112258         
   1684   133    infeasible                            0.0000  1120725         

Clique cuts applied:  19
Zero-half cuts applied:  23

Root node processing (before b&c):
  Real time             =   77.38 sec. (83984.86 ticks)
Sequential b&c:
  Real time             =  522.61 sec. (565905.18 ticks)
                          ------------
Total (root+branch&cut) =  599.99 sec. (649890.05 ticks)
Primal:	3
Dual:	300
Status:	Feasible
Time:	600.038
Sequence:
	12
	5
	5
